\* Problem: Unknown *\

Maximize
 obj: + xp_0_0 + xp_0_1 + xp_0_2 + xp_0_3 + xp_0_4 + xp_0_5 + xp_0_6
 + xp_0_7 + xp_1_0 + xp_1_1 + xp_1_2 + xp_2_0 + xp_2_1 + xp_2_2 + xp_2_3
 + xp_3_0 + xp_3_1 + xp_3_2 + xp_4_0 + xp_5_0 + xp_5_1 + xp_5_2 + xp_6_0
 + xp_6_1 + xp_6_2 + xp_7_0 + xp_7_1 + xp_8_0 + xp_8_1 + xp_9_0
 + xp_10_0 + xp_10_1 + xp_11_0 + xp_11_1 + xp_11_2 + xp_11_3 + xp_12_0
 + xp_13_0 + xp_13_1 + xp_14_0 + xp_14_1 + xp_15_0 + xp_15_1 + xp_16_0
 + xp_16_1 + xp_17_0 + xp_17_1 + xp_17_2 + xp_17_3 + xp_17_4 + xp_17_5
 + xp_17_6 + xp_18_0 + xp_18_1 + xp_18_2 + xp_18_3 + xp_18_4 + xp_19_0
 + xp_19_1 + xp_19_2 + xp_19_3 + xp_19_4 + xp_19_5 + xp_20_0 + xp_20_1
 + xp_20_2 + xp_20_3 + xp_21_0 + xp_21_1 + xp_21_2 + xp_21_3 + xp_21_4
 + xp_21_5 + xp_22_0 + xp_22_1 + xp_22_2 + xp_22_3 + xp_22_4 + xp_22_5
 + xp_22_6 + xp_23_0 + xp_23_1 + xp_23_2 + xp_23_3 + xp_23_4

Subject To
 r_1: 0 xp_0_0 <= 29.0077821011673
 r_2: + xp_22_5 + xp_18_4 + xp_18_2 + xp_15_1 + xp_5_2 + xp_2_3
 <= 28.0263157894737
 r_3: + xp_23_2 + xp_21_1 + xp_18_3 + xp_6_2 <= 30
 r_4: + xp_17_1 + xp_15_0 <= 30
 r_5: + xp_18_0 <= 27.4702380952381
 r_6: + xp_18_1 <= 30
 r_7: + xp_20_3 <= 29.0077821011673
 r_8: + xp_22_6 + xp_17_6 + xp_11_2 + xp_5_1 + xp_3_2 + xp_2_2
 <= 28.0263157894737
 r_9: + xp_23_3 + xp_11_1 + xp_6_1 + xp_3_1 <= 30
 r_10: + xp_3_0 <= 30
 r_11: + xp_18_1 + xp_11_3 <= 27.4702380952381
 r_12: + xp_11_0 <= 30
 r_13: 0 xp_0_0 <= 30
 r_14: + xp_21_4 + xp_19_2 + xp_14_0 + xp_0_7 + xp_0_1
 <= 28.0263157894737
 r_15: + xp_21_0 + xp_19_4 <= 29.0077821011673
 r_16: + xp_22_1 + xp_21_3 + xp_19_5 + xp_0_4 + xp_0_3 + xp_0_2
 <= 29.0077821011673
 r_17: + xp_0_0 <= 27.4702380952381
 r_18: + xp_21_1 + xp_4_0 <= 29.0077821011673
 r_19: + xp_19_0 <= 29.0077821011673
 r_20: + xp_21_5 + xp_21_2 + xp_19_3 + xp_19_1 + xp_14_1 + xp_0_6
 + xp_0_5 <= 29.0077821011673
 r_21: + xp_20_1 <= 28.0263157894737
 r_22: + xp_21_5 + xp_21_4 + xp_7_1 <= 28.0263157894737
 r_23: + xp_22_6 + xp_22_5 + xp_22_2 + xp_17_6 + xp_17_3
 <= 28.0263157894737
 r_24: + xp_23_4 + xp_18_4 + xp_17_5 + xp_15_1 + xp_3_2 + xp_0_7
 + xp_0_5 <= 29.2225609756098
 r_25: 0 xp_0_0 <= 28.0263157894737
 r_26: + xp_18_2 + xp_0_6 + xp_0_1 <= 27.4702380952381
 r_27: + xp_11_2 <= 28.0263157894737
 r_28: + xp_19_3 + xp_19_2 + xp_10_1 <= 28.0263157894737
 r_29: + xp_20_2 <= 29.0077821011673
 r_30: + xp_2_0 <= 28.0263157894737
 r_31: + xp_23_3 + xp_23_2 + xp_18_3 + xp_6_2 + xp_6_1 + xp_3_1
 <= 29.2225609756098
 r_32: + xp_2_1 <= 30
 r_33: + xp_11_1 + xp_2_3 <= 30
 r_34: + xp_19_4 + xp_2_2 <= 30
 r_35: 0 xp_0_0 <= 29.0077821011673
 r_36: + xp_9_0 <= 28.0263157894737
 r_37: + xp_21_3 + xp_13_1 + xp_8_1 + xp_0_3 <= 29.2225609756098
 r_38: + xp_1_1 <= 30
 r_39: + xp_19_5 + xp_17_6 + xp_17_3 + xp_17_2 + xp_0_4 <= 30
 r_40: + xp_0_2 <= 27.4702380952381
 r_41: + xp_12_0 <= 29.2225609756098
 r_42: + xp_21_3 <= 29.2225609756098
 r_43: + xp_16_0 <= 29.2225609756098
 r_44: + xp_23_4 + xp_23_3 + xp_23_2 + xp_23_1 + xp_22_4 + xp_16_1
 + xp_1_2 <= 29.2225609756098
 r_45: + xp_17_5 + xp_17_4 + xp_15_1 + xp_3_2 + xp_3_1
 <= 29.2225609756098
 r_46: + xp_18_4 + xp_18_3 + xp_0_7 + xp_0_5 + xp_0_3
 <= 27.4702380952381
 r_47: + xp_22_4 + xp_22_3 + xp_16_1 + xp_13_1 <= 30
 r_48: + xp_13_0 <= 29.2225609756098
 r_49: 0 xp_0_0 <= 30
 r_50: 0 xp_0_0 <= 27.4702380952381
 r_51: + xp_8_1 + xp_1_1 <= 30
 r_52: + xp_8_0 + xp_1_2 <= 29.2225609756098
 r_53: + xp_1_0 <= 30
 r_54: + xp_0_4 <= 27.4702380952381
 r_55: 0 xp_0_0 <= 30
 r_56: + xp_19_5 <= 30
 r_57: + xp_22_1 <= 27.4702380952381
 r_58: + xp_23_4 + xp_22_2 + xp_17_5 + xp_17_3 + xp_5_0
 <= 27.4702380952381
 r_59: + xp_22_0 + xp_17_2 <= 27.4702380952381
 r_60: + xp_23_1 + xp_22_4 + xp_17_4 + xp_6_0 <= 27.4702380952381
 r_61: + xp_23_0 + xp_22_3 <= 27.4702380952381
 r_62: + xp_17_0 <= 27.4702380952381
 r_63: + xp_23_2 + xp_22_5 + xp_17_1 + xp_11_3 + xp_6_2 + xp_5_2
 <= 27.4702380952381
 r_64: + xp_23_3 + xp_22_6 + xp_17_6 + xp_6_1 + xp_5_1
 <= 27.4702380952381
 r_65: + xp_21_5 + xp_20_1 + xp_19_3 + xp_14_1 + xp_10_1 + xp_7_1
 + xp_2_1 + xp_0_6 + xp_0_5 <= 28.0263157894737
 r_66: + xp_21_2 + xp_20_2 + xp_7_0 <= 30
 r_67: + xp_20_3 + xp_19_1 + xp_10_0 <= 30
 r_68: + xp_20_0 <= 29.0077821011673

Bounds
 0 <= xp_0_0 <= 27.9717766276435
 0 <= xp_0_1 <= 8.73697439906582
 0 <= xp_0_2 <= 13.8855825276346
 0 <= xp_0_3 <= 2.4739982780972
 0 <= xp_0_4 <= 2.4739982780972
 0 <= xp_0_5 <= 1.51559113714857
 0 <= xp_0_6 <= 3.23179384667148
 0 <= xp_0_7 <= 2.4739982780972
 0 <= xp_1_0 <= 19.1678954191448
 0 <= xp_1_1 <= 15.2525952241937
 0 <= xp_1_2 <= 0.720650958426933
 0 <= xp_2_0 <= 23.6181334177791
 0 <= xp_2_1 <= 0.676074457452178
 0 <= xp_2_2 <= 2.4739982780972
 0 <= xp_2_3 <= 7.88259393771462
 0 <= xp_3_0 <= 26.0995586387072
 0 <= xp_3_1 <= 4.2867660884108
 0 <= xp_3_2 <= 1.8127678103136
 0 <= xp_4_0 <= 26.1515472385231
 0 <= xp_5_0 <= 14.2644803119217
 0 <= xp_5_1 <= 7.13224015596085
 0 <= xp_5_2 <= 4.75482677064057
 0 <= xp_6_0 <= 17.117376374306
 0 <= xp_6_1 <= 4.27934409357651
 0 <= xp_6_2 <= 2.13967204678826
 0 <= xp_7_0 <= 20.5051904483875
 0 <= xp_7_1 <= 2.05051904483875
 0 <= xp_8_0 <= 18.4249537362322
 0 <= xp_8_1 <= 1.84249537362322
 0 <= xp_9_0 <= 18.7964245776885
 0 <= xp_10_0 <= 15.3788928362906
 0 <= xp_10_1 <= 3.41753174139791
 0 <= xp_11_0 <= 24.739982780972
 0 <= xp_11_1 <= 12.369991390486
 0 <= xp_11_2 <= 9.8959931123888
 0 <= xp_11_3 <= 7.4219948342916
 0 <= xp_12_0 <= 17.6522943860031
 0 <= xp_13_0 <= 14.0415978070479
 0 <= xp_13_1 <= 3.12035506823287
 0 <= xp_14_0 <= 11.8870669266014
 0 <= xp_14_1 <= 4.45765009747553
 0 <= xp_15_0 <= 14.7102453216693
 0 <= xp_15_1 <= 1.47102453216693
 0 <= xp_16_0 <= 14.1158919753392
 0 <= xp_16_1 <= 1.41158919753392
 0 <= xp_17_0 <= 26.3967402598688
 0 <= xp_17_1 <= 6.62702991558718
 0 <= xp_17_2 <= 1.6567574788968
 0 <= xp_17_3 <= 3.31351495779359
 0 <= xp_17_4 <= 3.31351495779359
 0 <= xp_17_5 <= 1.6567574788968
 0 <= xp_17_6 <= 2.4739982780972
 0 <= xp_18_0 <= 20.7577955685743
 0 <= xp_18_1 <= 14.3313475373821
 0 <= xp_18_2 <= 2.4739982780972
 0 <= xp_18_3 <= 4.43535442499332
 0 <= xp_18_4 <= 1.47845147499777
 0 <= xp_19_0 <= 28.6478560330922
 0 <= xp_19_1 <= 5.73549989609207
 0 <= xp_19_2 <= 1.43387497402302
 0 <= xp_19_3 <= 2.86774994804604
 0 <= xp_19_4 <= 2.86774994804604
 0 <= xp_19_5 <= 1.43387497402302
 0 <= xp_20_0 <= 27.4591443924355
 0 <= xp_20_1 <= 5.43832322292704
 0 <= xp_20_2 <= 5.19315988956072
 0 <= xp_20_3 <= 4.07874241719528
 0 <= xp_21_0 <= 27.132250051954
 0 <= xp_21_1 <= 2.39226727098198
 0 <= xp_21_2 <= 1.19613363549099
 0 <= xp_21_3 <= 6.06239918457017
 0 <= xp_21_4 <= 2.39226727098198
 0 <= xp_21_5 <= 1.19613363549099
 0 <= xp_22_0 <= 25.4086203996002
 0 <= xp_22_1 <= 2.09509059781694
 0 <= xp_22_2 <= 5.61663417482261
 0 <= xp_22_3 <= 1.04754529890847
 0 <= xp_22_4 <= 1.04754529890847
 0 <= xp_22_5 <= 1.04754529890847
 0 <= xp_22_6 <= 2.4739982780972
 0 <= xp_23_0 <= 27.8826186776974
 0 <= xp_23_1 <= 5.23772649454236
 0 <= xp_23_2 <= 2.09509059781694
 0 <= xp_23_3 <= 2.4739982780972
 0 <= xp_23_4 <= 1.04754529890847

End
